20170630 211831.31 191420.21
20170609 211800.00 191400.00
20170608 211831.31 191420.21
20170324 117684.06 106344.56
20161128 116904.56 106344.56
20151231 116904.56 81704.56
20151125 116904.56 81704.56
